NAME: cities_5_19
TYPE: TSP
COMMENT: Generated from CSV
DIMENSION: 6
EDGE_WEIGHT_TYPE: EUC_2D
NODE_COORD_SECTION
1 77.6957969576769 71.56408801377438
2 63.055547398419975 8.700509700771054
3 86.62253240253357 50.27675754711346
4 5.16193914560451 23.902241511658616
5 83.07123728445688 67.28504583980181
EOF
